\ Model Session chair assignment61755586863354658000
\ Problem name: Session chair assignment61755586863354658000

Minimize
 obj: [ 15 x_016_0 * x_028_0 + 8 x_016_0 * x_020_0 + 10 x_016_0 * x_031_0 + 9.6 x_016_0 
 * x_027_0 + 45 x_016_1 * x_028_1 + 24 x_016_1 * x_020_1 + 30 x_016_1 * x_031_1 + 28.8 
 x_016_1 * x_027_1 + 30 x_016_2 * x_028_2 + 16 x_016_2 * x_020_2 + 20 x_016_2 * x_031_2 
 + 19.2 x_016_2 * x_027_2 + 7 x_028_0 * x_020_0 + 7.8 x_028_0 * x_031_0 + 10.8 x_028_0 
 * x_027_0 + 21 x_028_1 * x_020_1 + 23.4 x_028_1 * x_031_1 + 32.4 x_028_1 * x_027_1 + 14 
 x_028_2 * x_020_2 + 15.6 x_028_2 * x_031_2 + 21.6 x_028_2 * x_027_2 + 2 x_020_0 
 * x_031_0 + 3.8 x_020_0 * x_027_0 + 6 x_020_1 * x_031_1 + 11.4 x_020_1 * x_027_1 + 4 
 x_020_2 * x_031_2 + 7.6 x_020_2 * x_027_2 + 3.4 x_031_0 * x_027_0 + 10.2 x_031_1 
 * x_027_1 + 6.8 x_031_2 * x_027_2 ] / 2 -2 x_016_0 - 2 x_031_2 - 2 x_027_1
Subject To
 someone_in_016: x_016_0 + x_016_1 + x_016_2 = 1
 someone_in_028: x_028_0 + x_028_1 + x_028_2 = 1
 someone_in_020: x_020_0 + x_020_1 + x_020_2 = 1
 someone_in_031: x_031_0 + x_031_1 + x_031_2 = 1
 someone_in_027: x_027_0 + x_027_1 + x_027_2 = 1
Bounds
Binaries
 x_016_0 x_016_1 x_016_2 x_028_0 x_028_1 x_028_2 x_020_0 x_020_1 x_020_2 x_031_0 x_031_1 
 x_031_2 x_027_0 x_027_1 x_027_2
End